120
1000
200
200
199
199
199
198
198
197
197
197
197
196
196
194
194
194
194
193
193
193
193
193
193
193
192
192
192
192
191
191
191
189
189
189
189
189
188
188
187
185
184
184
184
184
183
183
183
182
182
182
181
181
181
181
181
180
180
180
179
179
178
178
177
175
174
174
174
174
173
173
173
172
172
172
171
171
171
170
170
170
170
169
169
168
168
167
166
166
166
165
164
164
164
162
162
162
162
161
161
159
159
158
158
157
157
157
156
155
155
154
154
154
153
153
152
151
150
150
150
150
